p cnf 310 1177
-181 -182 0
-181 -183 0
-182 -183 0
-184 -185 0
-1 181 0
-1 184 0
-2 181 0
-2 185 0
-3 182 0
-3 184 0
-4 182 0
-4 185 0
-5 183 0
-5 184 0
-1 31 0
-1 6 0
-2 32 0
-2 7 0
-3 33 0
-3 8 0
-4 34 0
-4 9 0
-5 35 0
-5 10 0
-186 -187 0
-186 -188 0
-187 -188 0
-189 -190 0
-6 186 0
-6 189 0
-7 186 0
-7 190 0
-8 187 0
-8 189 0
-9 187 0
-9 190 0
-10 188 0
-10 189 0
-6 1 11 0
-6 1 36 0
-6 11 36 0
-7 2 12 0
-7 2 37 0
-7 12 37 0
-8 3 13 0
-8 3 38 0
-8 13 38 0
-9 4 14 0
-9 4 39 0
-9 14 39 0
-10 5 15 0
-10 5 40 0
-10 15 40 0
-6 -1 -11 -36 0
-7 -2 -12 -37 0
-8 -3 -13 -38 0
-9 -4 -14 -39 0
-10 -5 -15 -40 0
11 0
-12 0
-13 0
-14 0
-15 0
6 16 41 0
-6 -16 0
-6 -41 0
-16 -41 0
-191 -192 0
-191 -193 0
-192 -193 0
-194 -195 0
-16 191 0
-16 194 0
-17 191 0
-17 195 0
-18 192 0
-18 194 0
-19 192 0
-19 195 0
-20 193 0
-20 194 0
-16 11 21 0
-16 11 46 0
-16 21 46 0
-17 12 22 0
-17 12 47 0
-17 22 47 0
-18 13 23 0
-18 13 48 0
-18 23 48 0
-19 14 24 0
-19 14 49 0
-19 24 49 0
-20 15 25 0
-20 15 50 0
-20 25 50 0
-16 -11 -21 -46 0
-17 -12 -22 -47 0
-18 -13 -23 -48 0
-19 -14 -24 -49 0
-20 -15 -25 -50 0
25 0
-21 0
-22 0
-23 0
-24 0
20 30 55 0
-20 -30 0
-20 -55 0
-30 -55 0
28 0
-26 0
-27 0
-29 0
-30 0
58 23 0
-58 -23 0
-196 -197 0
-196 -198 0
-197 -198 0
-199 -200 0
-31 196 0
-31 199 0
-32 196 0
-32 200 0
-33 197 0
-33 199 0
-34 197 0
-34 200 0
-35 198 0
-35 199 0
-31 61 36 0
-31 61 1 0
-31 36 1 0
-32 62 37 0
-32 62 2 0
-32 37 2 0
-33 63 38 0
-33 63 3 0
-33 38 3 0
-34 64 39 0
-34 64 4 0
-34 39 4 0
-35 65 40 0
-35 65 5 0
-35 40 5 0
-31 -61 -36 -1 0
-32 -62 -37 -2 0
-33 -63 -38 -3 0
-34 -64 -39 -4 0
-35 -65 -40 -5 0
-201 -202 0
-201 -203 0
-202 -203 0
-204 -205 0
-36 201 0
-36 204 0
-37 201 0
-37 205 0
-38 202 0
-38 204 0
-39 202 0
-39 205 0
-40 203 0
-40 204 0
-36 66 41 6 0
-36 66 41 31 0
-36 66 6 31 0
-36 41 6 31 0
-37 67 42 7 0
-37 67 42 32 0
-37 67 7 32 0
-37 42 7 32 0
-38 68 43 8 0
-38 68 43 33 0
-38 68 8 33 0
-38 43 8 33 0
-39 69 44 9 0
-39 69 44 34 0
-39 69 9 34 0
-39 44 9 34 0
-40 70 45 10 0
-40 70 45 35 0
-40 70 10 35 0
-40 45 10 35 0
-36 -66 -41 -6 0
-36 -66 -41 -31 0
-36 -66 -6 -31 0
-36 -41 -6 -31 0
-37 -67 -42 -7 0
-37 -67 -42 -32 0
-37 -67 -7 -32 0
-37 -42 -7 -32 0
-38 -68 -43 -8 0
-38 -68 -43 -33 0
-38 -68 -8 -33 0
-38 -43 -8 -33 0
-39 -69 -44 -9 0
-39 -69 -44 -34 0
-39 -69 -9 -34 0
-39 -44 -9 -34 0
-40 -70 -45 -10 0
-40 -70 -45 -35 0
-40 -70 -10 -35 0
-40 -45 -10 -35 0
-206 -207 0
-206 -208 0
-207 -208 0
-209 -210 0
-41 206 0
-41 209 0
-42 206 0
-42 210 0
-43 207 0
-43 209 0
-44 207 0
-44 210 0
-45 208 0
-45 209 0
-41 71 46 11 0
-41 71 46 36 0
-41 71 11 36 0
-41 46 11 36 0
-42 72 47 12 0
-42 72 47 37 0
-42 72 12 37 0
-42 47 12 37 0
-43 73 48 13 0
-43 73 48 38 0
-43 73 13 38 0
-43 48 13 38 0
-44 74 49 14 0
-44 74 49 39 0
-44 74 14 39 0
-44 49 14 39 0
-45 75 50 15 0
-45 75 50 40 0
-45 75 15 40 0
-45 50 15 40 0
-41 -71 -46 -11 0
-41 -71 -46 -36 0
-41 -71 -11 -36 0
-41 -46 -11 -36 0
-42 -72 -47 -12 0
-42 -72 -47 -37 0
-42 -72 -12 -37 0
-42 -47 -12 -37 0
-43 -73 -48 -13 0
-43 -73 -48 -38 0
-43 -73 -13 -38 0
-43 -48 -13 -38 0
-44 -74 -49 -14 0
-44 -74 -49 -39 0
-44 -74 -14 -39 0
-44 -49 -14 -39 0
-45 -75 -50 -15 0
-45 -75 -50 -40 0
-45 -75 -15 -40 0
-45 -50 -15 -40 0
-211 -212 0
-211 -213 0
-212 -213 0
-214 -215 0
-46 211 0
-46 214 0
-47 211 0
-47 215 0
-48 212 0
-48 214 0
-49 212 0
-49 215 0
-50 213 0
-50 214 0
-46 76 51 16 0
-46 76 51 41 0
-46 76 16 41 0
-46 51 16 41 0
-47 77 52 17 0
-47 77 52 42 0
-47 77 17 42 0
-47 52 17 42 0
-48 78 53 18 0
-48 78 53 43 0
-48 78 18 43 0
-48 53 18 43 0
-49 79 54 19 0
-49 79 54 44 0
-49 79 19 44 0
-49 54 19 44 0
-50 80 55 20 0
-50 80 55 45 0
-50 80 20 45 0
-50 55 20 45 0
-46 -76 -51 -16 0
-46 -76 -51 -41 0
-46 -76 -16 -41 0
-46 -51 -16 -41 0
-47 -77 -52 -17 0
-47 -77 -52 -42 0
-47 -77 -17 -42 0
-47 -52 -17 -42 0
-48 -78 -53 -18 0
-48 -78 -53 -43 0
-48 -78 -18 -43 0
-48 -53 -18 -43 0
-49 -79 -54 -19 0
-49 -79 -54 -44 0
-49 -79 -19 -44 0
-49 -54 -19 -44 0
-50 -80 -55 -20 0
-50 -80 -55 -45 0
-50 -80 -20 -45 0
-50 -55 -20 -45 0
52 0
-51 0
-53 0
-54 0
-55 0
82 57 22 47 0
-82 -57 0
-82 -22 0
-82 -47 0
-57 -22 0
-57 -47 0
-22 -47 0
-216 -217 0
-216 -218 0
-217 -218 0
-219 -220 0
-56 216 0
-56 219 0
-57 216 0
-57 220 0
-58 217 0
-58 219 0
-59 217 0
-59 220 0
-60 218 0
-60 219 0
-56 86 51 0
-56 86 26 0
-56 51 26 0
-57 87 52 0
-57 87 27 0
-57 52 27 0
-58 88 53 0
-58 88 28 0
-58 53 28 0
-59 89 54 0
-59 89 29 0
-59 54 29 0
-60 90 55 0
-60 90 30 0
-60 55 30 0
-56 -86 -51 -26 0
-57 -87 -52 -27 0
-58 -88 -53 -28 0
-59 -89 -54 -29 0
-60 -90 -55 -30 0
-221 -222 0
-221 -223 0
-222 -223 0
-224 -225 0
-61 221 0
-61 224 0
-62 221 0
-62 225 0
-63 222 0
-63 224 0
-64 222 0
-64 225 0
-65 223 0
-65 224 0
-61 91 66 0
-61 91 31 0
-61 66 31 0
-62 92 67 0
-62 92 32 0
-62 67 32 0
-63 93 68 0
-63 93 33 0
-63 68 33 0
-64 94 69 0
-64 94 34 0
-64 69 34 0
-65 95 70 0
-65 95 35 0
-65 70 35 0
-61 -91 -66 -31 0
-62 -92 -67 -32 0
-63 -93 -68 -33 0
-64 -94 -69 -34 0
-65 -95 -70 -35 0
-226 -227 0
-226 -228 0
-227 -228 0
-229 -230 0
-66 226 0
-66 229 0
-67 226 0
-67 230 0
-68 227 0
-68 229 0
-69 227 0
-69 230 0
-70 228 0
-70 229 0
-66 96 71 36 0
-66 96 71 61 0
-66 96 36 61 0
-66 71 36 61 0
-67 97 72 37 0
-67 97 72 62 0
-67 97 37 62 0
-67 72 37 62 0
-68 98 73 38 0
-68 98 73 63 0
-68 98 38 63 0
-68 73 38 63 0
-69 99 74 39 0
-69 99 74 64 0
-69 99 39 64 0
-69 74 39 64 0
-70 100 75 40 0
-70 100 75 65 0
-70 100 40 65 0
-70 75 40 65 0
-66 -96 -71 -36 0
-66 -96 -71 -61 0
-66 -96 -36 -61 0
-66 -71 -36 -61 0
-67 -97 -72 -37 0
-67 -97 -72 -62 0
-67 -97 -37 -62 0
-67 -72 -37 -62 0
-68 -98 -73 -38 0
-68 -98 -73 -63 0
-68 -98 -38 -63 0
-68 -73 -38 -63 0
-69 -99 -74 -39 0
-69 -99 -74 -64 0
-69 -99 -39 -64 0
-69 -74 -39 -64 0
-70 -100 -75 -40 0
-70 -100 -75 -65 0
-70 -100 -40 -65 0
-70 -75 -40 -65 0
72 0
-71 0
-73 0
-74 0
-75 0
102 77 42 67 0
-102 -77 0
-102 -42 0
-102 -67 0
-77 -42 0
-77 -67 0
-42 -67 0
-231 -232 0
-231 -233 0
-232 -233 0
-234 -235 0
-76 231 0
-76 234 0
-77 231 0
-77 235 0
-78 232 0
-78 234 0
-79 232 0
-79 235 0
-80 233 0
-80 234 0
-76 106 81 46 0
-76 106 81 71 0
-76 106 46 71 0
-76 81 46 71 0
-77 107 82 47 0
-77 107 82 72 0
-77 107 47 72 0
-77 82 47 72 0
-78 108 83 48 0
-78 108 83 73 0
-78 108 48 73 0
-78 83 48 73 0
-79 109 84 49 0
-79 109 84 74 0
-79 109 49 74 0
-79 84 49 74 0
-80 110 85 50 0
-80 110 85 75 0
-80 110 50 75 0
-80 85 50 75 0
-76 -106 -81 -46 0
-76 -106 -81 -71 0
-76 -106 -46 -71 0
-76 -81 -46 -71 0
-77 -107 -82 -47 0
-77 -107 -82 -72 0
-77 -107 -47 -72 0
-77 -82 -47 -72 0
-78 -108 -83 -48 0
-78 -108 -83 -73 0
-78 -108 -48 -73 0
-78 -83 -48 -73 0
-79 -109 -84 -49 0
-79 -109 -84 -74 0
-79 -109 -49 -74 0
-79 -84 -49 -74 0
-80 -110 -85 -50 0
-80 -110 -85 -75 0
-80 -110 -50 -75 0
-80 -85 -50 -75 0
-236 -237 0
-236 -238 0
-237 -238 0
-239 -240 0
-81 236 0
-81 239 0
-82 236 0
-82 240 0
-83 237 0
-83 239 0
-84 237 0
-84 240 0
-85 238 0
-85 239 0
-81 111 86 51 0
-81 111 86 76 0
-81 111 51 76 0
-81 86 51 76 0
-82 112 87 52 0
-82 112 87 77 0
-82 112 52 77 0
-82 87 52 77 0
-83 113 88 53 0
-83 113 88 78 0
-83 113 53 78 0
-83 88 53 78 0
-84 114 89 54 0
-84 114 89 79 0
-84 114 54 79 0
-84 89 54 79 0
-85 115 90 55 0
-85 115 90 80 0
-85 115 55 80 0
-85 90 55 80 0
-81 -111 -86 -51 0
-81 -111 -86 -76 0
-81 -111 -51 -76 0
-81 -86 -51 -76 0
-82 -112 -87 -52 0
-82 -112 -87 -77 0
-82 -112 -52 -77 0
-82 -87 -52 -77 0
-83 -113 -88 -53 0
-83 -113 -88 -78 0
-83 -113 -53 -78 0
-83 -88 -53 -78 0
-84 -114 -89 -54 0
-84 -114 -89 -79 0
-84 -114 -54 -79 0
-84 -89 -54 -79 0
-85 -115 -90 -55 0
-85 -115 -90 -80 0
-85 -115 -55 -80 0
-85 -90 -55 -80 0
-241 -242 0
-241 -243 0
-242 -243 0
-244 -245 0
-86 241 0
-86 244 0
-87 241 0
-87 245 0
-88 242 0
-88 244 0
-89 242 0
-89 245 0
-90 243 0
-90 244 0
-86 116 81 0
-86 116 56 0
-86 81 56 0
-87 117 82 0
-87 117 57 0
-87 82 57 0
-88 118 83 0
-88 118 58 0
-88 83 58 0
-89 119 84 0
-89 119 59 0
-89 84 59 0
-90 120 85 0
-90 120 60 0
-90 85 60 0
-86 -116 -81 -56 0
-87 -117 -82 -57 0
-88 -118 -83 -58 0
-89 -119 -84 -59 0
-90 -120 -85 -60 0
-246 -247 0
-246 -248 0
-247 -248 0
-249 -250 0
-91 246 0
-91 249 0
-92 246 0
-92 250 0
-93 247 0
-93 249 0
-94 247 0
-94 250 0
-95 248 0
-95 249 0
-91 121 96 0
-91 121 61 0
-91 96 61 0
-92 122 97 0
-92 122 62 0
-92 97 62 0
-93 123 98 0
-93 123 63 0
-93 98 63 0
-94 124 99 0
-94 124 64 0
-94 99 64 0
-95 125 100 0
-95 125 65 0
-95 100 65 0
-91 -121 -96 -61 0
-92 -122 -97 -62 0
-93 -123 -98 -63 0
-94 -124 -99 -64 0
-95 -125 -100 -65 0
100 0
-96 0
-97 0
-98 0
-99 0
130 105 70 95 0
-130 -105 0
-130 -70 0
-130 -95 0
-105 -70 0
-105 -95 0
-70 -95 0
-251 -252 0
-251 -253 0
-252 -253 0
-254 -255 0
-101 251 0
-101 254 0
-102 251 0
-102 255 0
-103 252 0
-103 254 0
-104 252 0
-104 255 0
-105 253 0
-105 254 0
-101 131 106 71 0
-101 131 106 96 0
-101 131 71 96 0
-101 106 71 96 0
-102 132 107 72 0
-102 132 107 97 0
-102 132 72 97 0
-102 107 72 97 0
-103 133 108 73 0
-103 133 108 98 0
-103 133 73 98 0
-103 108 73 98 0
-104 134 109 74 0
-104 134 109 99 0
-104 134 74 99 0
-104 109 74 99 0
-105 135 110 75 0
-105 135 110 100 0
-105 135 75 100 0
-105 110 75 100 0
-101 -131 -106 -71 0
-101 -131 -106 -96 0
-101 -131 -71 -96 0
-101 -106 -71 -96 0
-102 -132 -107 -72 0
-102 -132 -107 -97 0
-102 -132 -72 -97 0
-102 -107 -72 -97 0
-103 -133 -108 -73 0
-103 -133 -108 -98 0
-103 -133 -73 -98 0
-103 -108 -73 -98 0
-104 -134 -109 -74 0
-104 -134 -109 -99 0
-104 -134 -74 -99 0
-104 -109 -74 -99 0
-105 -135 -110 -75 0
-105 -135 -110 -100 0
-105 -135 -75 -100 0
-105 -110 -75 -100 0
-256 -257 0
-256 -258 0
-257 -258 0
-259 -260 0
-106 256 0
-106 259 0
-107 256 0
-107 260 0
-108 257 0
-108 259 0
-109 257 0
-109 260 0
-110 258 0
-110 259 0
-106 136 111 76 0
-106 136 111 101 0
-106 136 76 101 0
-106 111 76 101 0
-107 137 112 77 0
-107 137 112 102 0
-107 137 77 102 0
-107 112 77 102 0
-108 138 113 78 0
-108 138 113 103 0
-108 138 78 103 0
-108 113 78 103 0
-109 139 114 79 0
-109 139 114 104 0
-109 139 79 104 0
-109 114 79 104 0
-110 140 115 80 0
-110 140 115 105 0
-110 140 80 105 0
-110 115 80 105 0
-106 -136 -111 -76 0
-106 -136 -111 -101 0
-106 -136 -76 -101 0
-106 -111 -76 -101 0
-107 -137 -112 -77 0
-107 -137 -112 -102 0
-107 -137 -77 -102 0
-107 -112 -77 -102 0
-108 -138 -113 -78 0
-108 -138 -113 -103 0
-108 -138 -78 -103 0
-108 -113 -78 -103 0
-109 -139 -114 -79 0
-109 -139 -114 -104 0
-109 -139 -79 -104 0
-109 -114 -79 -104 0
-110 -140 -115 -80 0
-110 -140 -115 -105 0
-110 -140 -80 -105 0
-110 -115 -80 -105 0
-261 -262 0
-261 -263 0
-262 -263 0
-264 -265 0
-111 261 0
-111 264 0
-112 261 0
-112 265 0
-113 262 0
-113 264 0
-114 262 0
-114 265 0
-115 263 0
-115 264 0
-111 141 116 81 0
-111 141 116 106 0
-111 141 81 106 0
-111 116 81 106 0
-112 142 117 82 0
-112 142 117 107 0
-112 142 82 107 0
-112 117 82 107 0
-113 143 118 83 0
-113 143 118 108 0
-113 143 83 108 0
-113 118 83 108 0
-114 144 119 84 0
-114 144 119 109 0
-114 144 84 109 0
-114 119 84 109 0
-115 145 120 85 0
-115 145 120 110 0
-115 145 85 110 0
-115 120 85 110 0
-111 -141 -116 -81 0
-111 -141 -116 -106 0
-111 -141 -81 -106 0
-111 -116 -81 -106 0
-112 -142 -117 -82 0
-112 -142 -117 -107 0
-112 -142 -82 -107 0
-112 -117 -82 -107 0
-113 -143 -118 -83 0
-113 -143 -118 -108 0
-113 -143 -83 -108 0
-113 -118 -83 -108 0
-114 -144 -119 -84 0
-114 -144 -119 -109 0
-114 -144 -84 -109 0
-114 -119 -84 -109 0
-115 -145 -120 -85 0
-115 -145 -120 -110 0
-115 -145 -85 -110 0
-115 -120 -85 -110 0
-266 -267 0
-266 -268 0
-267 -268 0
-269 -270 0
-116 266 0
-116 269 0
-117 266 0
-117 270 0
-118 267 0
-118 269 0
-119 267 0
-119 270 0
-120 268 0
-120 269 0
-116 146 111 0
-116 146 86 0
-116 111 86 0
-117 147 112 0
-117 147 87 0
-117 112 87 0
-118 148 113 0
-118 148 88 0
-118 113 88 0
-119 149 114 0
-119 149 89 0
-119 114 89 0
-120 150 115 0
-120 150 90 0
-120 115 90 0
-116 -146 -111 -86 0
-117 -147 -112 -87 0
-118 -148 -113 -88 0
-119 -149 -114 -89 0
-120 -150 -115 -90 0
-271 -272 0
-271 -273 0
-272 -273 0
-274 -275 0
-121 271 0
-121 274 0
-122 271 0
-122 275 0
-123 272 0
-123 274 0
-124 272 0
-124 275 0
-125 273 0
-125 274 0
-121 151 126 0
-121 151 91 0
-121 126 91 0
-122 152 127 0
-122 152 92 0
-122 127 92 0
-123 153 128 0
-123 153 93 0
-123 128 93 0
-124 154 129 0
-124 154 94 0
-124 129 94 0
-125 155 130 0
-125 155 95 0
-125 130 95 0
-121 -151 -126 -91 0
-122 -152 -127 -92 0
-123 -153 -128 -93 0
-124 -154 -129 -94 0
-125 -155 -130 -95 0
128 0
-126 0
-127 0
-129 0
-130 0
158 133 98 123 0
-158 -133 0
-158 -98 0
-158 -123 0
-133 -98 0
-133 -123 0
-98 -123 0
-276 -277 0
-276 -278 0
-277 -278 0
-279 -280 0
-131 276 0
-131 279 0
-132 276 0
-132 280 0
-133 277 0
-133 279 0
-134 277 0
-134 280 0
-135 278 0
-135 279 0
-131 161 136 101 0
-131 161 136 126 0
-131 161 101 126 0
-131 136 101 126 0
-132 162 137 102 0
-132 162 137 127 0
-132 162 102 127 0
-132 137 102 127 0
-133 163 138 103 0
-133 163 138 128 0
-133 163 103 128 0
-133 138 103 128 0
-134 164 139 104 0
-134 164 139 129 0
-134 164 104 129 0
-134 139 104 129 0
-135 165 140 105 0
-135 165 140 130 0
-135 165 105 130 0
-135 140 105 130 0
-131 -161 -136 -101 0
-131 -161 -136 -126 0
-131 -161 -101 -126 0
-131 -136 -101 -126 0
-132 -162 -137 -102 0
-132 -162 -137 -127 0
-132 -162 -102 -127 0
-132 -137 -102 -127 0
-133 -163 -138 -103 0
-133 -163 -138 -128 0
-133 -163 -103 -128 0
-133 -138 -103 -128 0
-134 -164 -139 -104 0
-134 -164 -139 -129 0
-134 -164 -104 -129 0
-134 -139 -104 -129 0
-135 -165 -140 -105 0
-135 -165 -140 -130 0
-135 -165 -105 -130 0
-135 -140 -105 -130 0
-281 -282 0
-281 -283 0
-282 -283 0
-284 -285 0
-136 281 0
-136 284 0
-137 281 0
-137 285 0
-138 282 0
-138 284 0
-139 282 0
-139 285 0
-140 283 0
-140 284 0
-136 166 141 106 0
-136 166 141 131 0
-136 166 106 131 0
-136 141 106 131 0
-137 167 142 107 0
-137 167 142 132 0
-137 167 107 132 0
-137 142 107 132 0
-138 168 143 108 0
-138 168 143 133 0
-138 168 108 133 0
-138 143 108 133 0
-139 169 144 109 0
-139 169 144 134 0
-139 169 109 134 0
-139 144 109 134 0
-140 170 145 110 0
-140 170 145 135 0
-140 170 110 135 0
-140 145 110 135 0
-136 -166 -141 -106 0
-136 -166 -141 -131 0
-136 -166 -106 -131 0
-136 -141 -106 -131 0
-137 -167 -142 -107 0
-137 -167 -142 -132 0
-137 -167 -107 -132 0
-137 -142 -107 -132 0
-138 -168 -143 -108 0
-138 -168 -143 -133 0
-138 -168 -108 -133 0
-138 -143 -108 -133 0
-139 -169 -144 -109 0
-139 -169 -144 -134 0
-139 -169 -109 -134 0
-139 -144 -109 -134 0
-140 -170 -145 -110 0
-140 -170 -145 -135 0
-140 -170 -110 -135 0
-140 -145 -110 -135 0
141 0
-142 0
-143 0
-144 0
-145 0
171 146 111 136 0
-171 -146 0
-171 -111 0
-171 -136 0
-146 -111 0
-146 -136 0
-111 -136 0
149 0
-146 0
-147 0
-148 0
-150 0
179 144 119 0
-179 -144 0
-179 -119 0
-144 -119 0
-286 -287 0
-286 -288 0
-287 -288 0
-289 -290 0
-151 286 0
-151 289 0
-152 286 0
-152 290 0
-153 287 0
-153 289 0
-154 287 0
-154 290 0
-155 288 0
-155 289 0
-151 121 0
-151 156 0
-152 122 0
-152 157 0
-153 123 0
-153 158 0
-154 124 0
-154 159 0
-155 125 0
-155 160 0
-291 -292 0
-291 -293 0
-292 -293 0
-294 -295 0
-156 291 0
-156 294 0
-157 291 0
-157 295 0
-158 292 0
-158 294 0
-159 292 0
-159 295 0
-160 293 0
-160 294 0
-156 126 161 0
-156 126 151 0
-156 161 151 0
-157 127 162 0
-157 127 152 0
-157 162 152 0
-158 128 163 0
-158 128 153 0
-158 163 153 0
-159 129 164 0
-159 129 154 0
-159 164 154 0
-160 130 165 0
-160 130 155 0
-160 165 155 0
-156 -126 -161 -151 0
-157 -127 -162 -152 0
-158 -128 -163 -153 0
-159 -129 -164 -154 0
-160 -130 -165 -155 0
-296 -297 0
-296 -298 0
-297 -298 0
-299 -300 0
-161 296 0
-161 299 0
-162 296 0
-162 300 0
-163 297 0
-163 299 0
-164 297 0
-164 300 0
-165 298 0
-165 299 0
-161 131 166 0
-161 131 156 0
-161 166 156 0
-162 132 167 0
-162 132 157 0
-162 167 157 0
-163 133 168 0
-163 133 158 0
-163 168 158 0
-164 134 169 0
-164 134 159 0
-164 169 159 0
-165 135 170 0
-165 135 160 0
-165 170 160 0
-161 -131 -166 -156 0
-162 -132 -167 -157 0
-163 -133 -168 -158 0
-164 -134 -169 -159 0
-165 -135 -170 -160 0
-301 -302 0
-301 -303 0
-302 -303 0
-304 -305 0
-166 301 0
-166 304 0
-167 301 0
-167 305 0
-168 302 0
-168 304 0
-169 302 0
-169 305 0
-170 303 0
-170 304 0
-166 136 171 0
-166 136 161 0
-166 171 161 0
-167 137 172 0
-167 137 162 0
-167 172 162 0
-168 138 173 0
-168 138 163 0
-168 173 163 0
-169 139 174 0
-169 139 164 0
-169 174 164 0
-170 140 175 0
-170 140 165 0
-170 175 165 0
-166 -136 -171 -161 0
-167 -137 -172 -162 0
-168 -138 -173 -163 0
-169 -139 -174 -164 0
-170 -140 -175 -165 0
174 0
-171 0
-172 0
-173 0
-175 0
144 179 169 0
-144 -179 0
-144 -169 0
-179 -169 0
-306 -307 0
-306 -308 0
-307 -308 0
-309 -310 0
-176 306 0
-176 309 0
-177 306 0
-177 310 0
-178 307 0
-178 309 0
-179 307 0
-179 310 0
-180 308 0
-180 309 0
-176 146 0
-176 171 0
-177 147 0
-177 172 0
-178 148 0
-178 173 0
-179 149 0
-179 174 0
-180 150 0
-180 175 0